La2 B8 H24
1.0
  12.1020473129455652    0.0000000000000007    0.0000000000000007
   0.0000000000000000   12.1020473129455652    0.0000000000000007
   0.0000000000000000    0.0000000000000000    6.6572017689026373
B H La
8 24 2
direct
   0.0575093647213594    0.5593337745293820    0.1750945795537514 B
  -0.0575093635816392    0.4406662243659422    0.1750945795537514 B
   0.4406662254706180    0.0575093647213594    0.1750945795537514 B
   0.5593337756340580   -0.0575093635816392    0.1750945795537513 B
   0.5575093647213595    0.0593337745293821    0.6750945795537512 B
   0.4424906364183608   -0.0593337756340578    0.6750945795537513 B
  -0.0593337745293821    0.5575093647213595    0.6750945795537512 B
   0.0593337756340578    0.4424906364183608    0.6750945795537512 B
   0.0575093647213594    0.5593337745293822   -0.0036591833977516 H
   0.1186569801456481    0.5000663424877174    0.2644714610295028 H
  -0.0036382507029294    0.6186012065710468    0.2644714610295028 H
  -0.0575093635816392    0.4406662243659422   -0.0036591833977516 H
   0.0036382495632090    0.3813987945336292    0.2644714710247874 H
  -0.1186569812853682    0.4999336586169583    0.2644714510342179 H
   0.4406662254706180    0.0575093647213594   -0.0036591833977516 H
   0.4999336575122827    0.1186569801456481    0.2644714610295028 H
   0.3813987934289533   -0.0036382507029293    0.2644714610295028 H
   0.5593337756340580   -0.0575093635816392   -0.0036591833977516 H
   0.6186012054663710    0.0036382495632090    0.2644714710247874 H
   0.5000663413830417   -0.1186569812853682    0.2644714510342179 H
   0.5575093647213595    0.0593337745293821    0.4963408166022483 H
   0.6186569801456482    0.0000663424877173    0.7644714610295027 H
   0.4963617492970707    0.1186012065710468    0.7644714610295027 H
   0.4424906364183608   -0.0593337756340578    0.4963408166022484 H
   0.5036382495632091   -0.1186012054663709    0.7644714710247872 H
   0.3813430187146318   -0.0000663413830417    0.7644714510342179 H
  -0.0593337745293821    0.5575093647213595    0.4963408166022483 H
  -0.0000663424877173    0.6186569801456482    0.7644714610295027 H
  -0.1186012065710468    0.4963617492970707    0.7644714610295028 H
   0.0593337756340578    0.4424906364183608    0.4963408166022483 H
   0.1186012054663709    0.5036382495632091    0.7644714710247872 H
   0.0000663413830417    0.3813430187146318    0.7644714510342179 H
   0.0000000000000000    0.0000000000000000    0.8765925046098458 La
   0.5000000000000000    0.5000000000000000    0.3765925046098457 La
