126CONTCAR_1470\(3)
1.0
        3.6324000359         0.0000000000         0.0000000000
        0.0000000000         6.5618000031         0.0000000000
        0.0000000000         0.0000000000         3.6324000359
    H    B   La
   12    4    2
Direct
     0.278980000         0.300130000         0.972520000
     0.721020000         0.699870000         0.972520000
     0.278980000         0.699870000         0.972520000
     0.721020000         0.300130000         0.972520000
     0.778980000         0.800130000         0.472520000
     0.221020000         0.199870000         0.472520000
     0.778980000         0.199870000         0.472520000
     0.221020000         0.800130000         0.472520000
     0.000000000         0.367530000         0.419930000
     0.000000000         0.632470000         0.419930000
     0.500000000         0.867530000         0.919930000
     0.500000000         0.132470000         0.919930000
     0.000000000         0.382600000         0.000000000
     0.000000000         0.617400000         0.000000000
     0.500000000         0.882600000         0.500000000
     0.500000000         0.117400000         0.500000000
     0.500000000         0.500000000         0.500000000
     0.000000000         0.000000000         0.000000000
