B4 H12
1.0
   5.3346995575207830    0.0000000000000003    0.0000000000000003
   0.0000000000000000   10.0675261052242018    0.0000000000000006
   0.0000000000000000    0.0000000000000000    6.8234958625082429
B H
4 12
direct
   0.2500000000000005    0.6842580809819476    0.4946274466359100 B
   0.2500000000000003    0.6714644180591522    0.7503986406578812 B
   0.7499999999999996    0.3157419190180524    0.4946274466359099 B
   0.7499999999999997    0.3285355819408476    0.7503986406578812 B
   0.0568175903554203    0.7431986965861664    0.5010452972568030 H
   0.2499999999999989    0.5663768497735083    0.4817917453941234 H
   0.4431824096445790    0.7431986965861681    0.5010452972568032 H
   0.0568175903554226    0.6125238024549312    0.7439807900369877 H
   0.4431824096445814    0.6125238024549342    0.7439807900369882 H
   0.2499999999999970    0.7893456492675917    0.7632343418996677 H
   0.9431824096445797    0.2568013034138334    0.5010452972568029 H
   0.7500000000000012    0.4336231502264916    0.4817917453941233 H
   0.5568175903554210    0.2568013034138318    0.5010452972568031 H
   0.9431824096445773    0.3874761975450688    0.7439807900369876 H
   0.5568175903554187    0.3874761975450658    0.7439807900369881 H
   0.7500000000000030    0.2106543507324083    0.7632343418996675 H
