B4 H12
1.0
   9.5782869602560599    1.8148723721830278    2.1462140099594071
   0.0000000000000000    7.1327463132432127   -0.6758291806679488
   0.0000000000000000    0.0000000000000000    5.3640774578830799
B H
4 12
direct
   0.6782528972356409    0.2457412276254518    0.9042057737372645 B
   0.7008360804857685    0.4506172126779578    0.7585931486250161 B
   0.3217471027643591    0.7542587723745483    0.0957942262627355 B
   0.2991639195142315    0.5493827873220423    0.2414068513749839 B
   0.5581321366845103    0.3125294890979863    0.9904934381289432 H
   0.7623536764444855    0.2733639578833426    1.0237515408967732 H
   0.7142728785779254    0.1513302358950280    0.6983723421860796 H
   0.6648160991434847    0.5450282044083816    0.9644265801762011 H
   0.8209568410368988    0.3838289512054228    0.6723054842333362 H
   0.6167353012769218    0.4229944824200692    0.6390473814655113 H
   0.4418678633154896    0.6874705109020141    0.0095065618710568 H
   0.2376463235555145    0.7266360421166578   -0.0237515408967731 H
   0.2857271214220746    0.8486697641049723    0.3016276578139204 H
   0.3351839008565152    0.4549717955916187    0.0355734198237989 H
   0.1790431589631011    0.6161710487945773    0.3276945157666639 H
   0.3832646987230782    0.5770055175799309    0.3609526185344887 H
