B4 H12
1.0
   6.1414535890228672    0.0000000000000004    0.0000000000000004
   0.0000000000000000    6.1414535890228672    0.0000000000000004
   0.0000000000000000    0.0000000000000000    9.7162194258132590
B H
4 12
direct
   0.1412958564009713   -0.0182876885550385   -0.0000000000000001 B
  -0.1412958564009713    0.0182876885550391   -0.0000000000000001 B
   0.0182876885550385    0.1412958564009713    0.4999999999999998 B
  -0.0182876885550391   -0.1412958564009713    0.4999999999999999 B
   0.1164246027475455   -0.2104500317702685   -0.0000000000000004 H
   0.1537314832276839    0.0777934830525736    0.1060669865599999 H
   0.1537314832276843    0.0777934830525769   -0.1060669865599990 H
  -0.1537314832276840   -0.0777934830525751    0.1060669865599992 H
  -0.1164246027475454    0.2104500317702691   -0.0000000000000006 H
  -0.1537314832276843   -0.0777934830525767   -0.1060669865599988 H
   0.2104500317702685    0.1164246027475455    0.4999999999999995 H
  -0.0777934830525736    0.1537314832276840    0.6060669865599999 H
  -0.0777934830525769    0.1537314832276843    0.3939330134400010 H
   0.0777934830525751   -0.1537314832276840    0.6060669865599992 H
  -0.2104500317702691   -0.1164246027475454    0.4999999999999993 H
   0.0777934830525767   -0.1537314832276843    0.3939330134400011 H
