B4 H12
1.0
   5.5346371713082103    0.0000000000000003    0.0000000000000003
   0.0000000000000000    5.5346371713082103    0.0000000000000003
   0.0000000000000000    0.0000000000000000   11.9635853291792280
B H
4 12
direct
  -0.1035676002028825   -0.1194481853645336    0.5279971173952301 B
   0.1035676002028819    0.1194481853645341    0.5279971173952301 B
   0.1194481853645336   -0.1035676002028825    0.0279971173952301 B
  -0.1194481853645341    0.1035676002028819    0.0279971173952301 B
   0.0588819137256673   -0.2603001058885608    0.5279971173952304 H
  -0.1847923571671549   -0.0490222251025221    0.4418548709953836 H
  -0.1847923571671576   -0.0490222251025197    0.6141393637950757 H
   0.1847923571671561    0.0490222251025210    0.4418548709953842 H
  -0.0588819137256679    0.2603001058885613    0.5279971173952306 H
   0.1847923571671576    0.0490222251025199    0.6141393637950756 H
   0.2603001058885608    0.0588819137256673    0.0279971173952304 H
   0.0490222251025222   -0.1847923571671549   -0.0581451290046164 H
   0.0490222251025197   -0.1847923571671576    0.1141393637950758 H
  -0.0490222251025210    0.1847923571671561   -0.0581451290046159 H
  -0.2603001058885613   -0.0588819137256679    0.0279971173952306 H
  -0.0490222251025199    0.1847923571671576    0.1141393637950756 H
