La2 B4 H12
1.0
   9.5111529333414868    0.0000000000000007   -1.8987444509696092
   0.0000000000000000    8.0146651948522969    0.0000000000000005
   0.0000000000000000    0.0000000000000000    8.6954009111762911
B H La
4 12 2
direct
   0.0323126436681196    0.0738954920219272    0.4419579039078705 B
  -0.0323126436681199   -0.0738954920219274    0.5580420960921291 B
  -0.0323126436681196    0.5738954920219270    0.5580420960921294 B
   0.0323126436681199    0.4261045079780725    0.4419579039078710 B
   0.1315841557663529    0.0964132127129621    0.5443048596782620 H
  -0.0711844983996061    0.1552600236158546    0.4363593350812934 H
   0.0365382736376130   -0.0299867602630341    0.3452095169640583 H
  -0.0365382736376141    0.0299867602630341    0.6547904830359409 H
  -0.1315841557663526   -0.0964132127129631    0.4556951403217372 H
   0.0711844983996072   -0.1552600236158533    0.5636406649187089 H
  -0.1315841557663529    0.5964132127129621    0.4556951403217380 H
   0.0711844983996061    0.6552600236158546    0.5636406649187067 H
  -0.0365382736376130    0.4700132397369658    0.6547904830359417 H
   0.0365382736376141    0.5299867602630342    0.3452095169640591 H
   0.1315841557663526    0.4035867872870368    0.5443048596782628 H
  -0.0711844983996072    0.3447399763841467    0.4363593350812912 H
   0.4999999999999999    0.0000000000000000    0.5000000000000000 La
   0.4999999999999999    0.4999999999999998    0.5000000000000000 La
