B4 H12
1.0
   6.1069700874275412    0.0000000000000004    0.2398816072018081
   0.0000000000000000    9.4485369107127504    0.0000000000000006
   0.0000000000000000    0.0000000000000000    6.3511051904000757
B H
4 12
direct
   0.1392599061030909    0.5000000074161931    0.4623379374899332 B
  -0.1392599061030907    0.4999999925838071    0.5376620625100674 B
   0.6392599061030909    0.0000000074161931    0.4623379374899332 B
   0.3607400938969093   -0.0000000074161929    0.5376620625100674 B
   0.0934312653365404    0.5000000142761850    0.2819556798520368 H
   0.1621742374596908    0.3909280783546976    0.5525290542478181 H
   0.1621742155130408    0.6090719296176959    0.5525290783699425 H
  -0.1621742155130404    0.3909280703823039    0.4474709216300595 H
  -0.0934312653365402    0.4999999857238160    0.7180443201479639 H
  -0.1621742374596915    0.6090719216453013    0.4474709457521792 H
   0.5934312653365403    0.0000000142761850    0.2819556798520368 H
   0.6621742374596908   -0.1090719216453024    0.5525290542478181 H
   0.6621742155130408    0.1090719296176959    0.5525290783699425 H
   0.3378257844869597   -0.1090719296176961    0.4474709216300594 H
   0.4065687346634599   -0.0000000142761839    0.7180443201479638 H
   0.3378257625403086    0.1090719216453013    0.4474709457521792 H
