B4 H12
1.0
   5.6632823060012392    0.0000000000000003    0.0000000000000003
   0.0000000000000000   10.2252725110162253    0.0000000000000006
   0.0000000000000000    0.0000000000000000    6.3284384479034355
B H
4 12
direct
  -0.0000000000000005    0.6609000230950509    0.2524755047360995 B
  -0.0000000000000003    0.6158392452376397    0.5192480997413745 B
   0.0000000000000005    0.3390999769049493    0.7524755047360995 B
   0.0000000000000003    0.3841607547623604    1.0192480997413744 B
   0.1819739966273037    0.6047639859189871    0.2277209064191160 H
   0.0000000000000011    0.7731720974471800    0.3019847013700670 H
  -0.1819739966273031    0.6047639859189855    0.2277209064191155 H
   0.1819739966273015    0.6719752824137056    0.5440026980583589 H
  -0.1819739966273052    0.6719752824137027    0.5440026980583578 H
   0.0000000000000028    0.5035671708855106    0.4697389031074071 H
  -0.1819739966273037    0.3952360140810131    0.7277209064191160 H
  -0.0000000000000011    0.2268279025528203    0.8019847013700669 H
   0.1819739966273031    0.3952360140810146    0.7277209064191155 H
  -0.1819739966273015    0.3280247175862944    1.0440026980583588 H
   0.1819739966273052    0.3280247175862973    1.0440026980583577 H
  -0.0000000000000028    0.4964328291144895    0.9697389031074071 H
