La2 B4 H12
1.0
  12.2809500815248374    0.0000000000000009   -2.8347221402771821
   0.0000000000000000    5.7050835049777833    0.0000000000000003
   0.0000000000000000    0.0000000000000000    9.4605021453825504
B H La
4 12 2
direct
   0.1872400443026226    0.0000000000000005    0.5429855920261872 B
   0.1784089959525911    0.0000000000000003    0.7249635192512229 B
   0.6872400443026225    0.5000000000000004    0.5429855920261872 B
   0.6784089959525911    0.5000000000000003    0.7249635192512229 B
   0.1388841584001017   -0.1806406714910567    0.5245986460345108 H
   0.2839518161076658   -0.0000000000000010    0.5797594840095405 H
   0.1388841584001003    0.1806406714910561    0.5245986460345105 H
   0.2267648818551140   -0.1806406714910546    0.7433504652428999 H
   0.2267648818551115    0.1806406714910582    0.7433504652428991 H
   0.0816972241475479   -0.0000000000000028    0.6881896272678697 H
   0.6388841584001016    0.3193593285089433    0.5245986460345108 H
   0.7839518161076658    0.4999999999999989    0.5797594840095405 H
   0.6388841584001004    0.6806406714910559    0.5245986460345105 H
   0.7267648818551139    0.3193593285089454    0.7433504652429000 H
   0.7267648818551115    0.6806406714910582    0.7433504652428992 H
   0.5816972241475479    0.4999999999999972    0.6881896272678696 H
   0.8705230063552155    0.0000000000000000    0.3795535957899545 La
   0.3705230063552154    0.5000000000000000    0.3795535957899546 La
