B4 H12
1.0
  10.5395028794027290    0.0000000000000005    2.2464657847730347
   0.0000000000000000    7.1522871109755073    0.0000000000000004
   0.0000000000000000    0.0000000000000000    4.8615481998433987
B H
4 12
direct
   0.3160607539619458    0.5591554675835272    1.0011678807461919 B
   0.3842370303301442    0.7822560754354659    0.9694546277386507 B
   0.6839392460380541    0.5591554675835271   -0.0011678807461918 B
   0.6157629696698558    0.7822560754354658    0.0305453722613492 B
   0.3034329950450116    0.5674292573813705    0.7640655145982904 H
   0.2338888680256893    0.6137458237242189    1.1865533878524508 H
   0.4108603988151358    0.4962913216449925    1.0528847397878309 H
   0.2894373854769540    0.8451202213740007    0.9177377686970132 H
   0.3968647892470791    0.7739822856376221    1.2065569938865517 H
   0.4664089162663995    0.7276657192947750    0.7840691206323878 H
   0.6965670049549884    0.5674292573813705    0.2359344854017096 H
   0.7661111319743108    0.6137458237242189   -0.1865533878524511 H
   0.5891396011848641    0.4962913216449925   -0.0528847397878311 H
   0.7105626145230459    0.8451202213740007    0.0822622313029868 H
   0.6031352107529208    0.7739822856376221   -0.2065569938865516 H
   0.5335910837336004    0.7276657192947750    0.2159308793676123 H
