B4 H12
1.0
   5.6695164992591742    0.0000000000000003    0.0000000000000003
   0.0000000000000000    5.6695164992591742    0.0000000000000003
   0.0000000000000000    0.0000000000000000   11.4011225937604141
B H
4 12
direct
   0.1323450337352218    0.5793966080319867   -0.0000000000000001 B
  -0.1323450337352222    0.4206033919680138   -0.0000000000000001 B
   0.4206033919680131    0.1323450337352218   -0.0000000000000001 B
   0.5793966080319862   -0.1323450337352222   -0.0000000000000001 B
   0.2403244085830663    0.3994073822808196   -0.0000000000000004 H
   0.0783553463113012    0.6693912209075678    0.0903919861203627 H
   0.0783553463112993    0.6693912209075707   -0.0903919861203620 H
  -0.0783553463113003    0.3306087790924309    0.0903919861203622 H
  -0.2403244085830667    0.6005926177191809   -0.0000000000000006 H
  -0.0783553463112995    0.3306087790924293   -0.0903919861203618 H
   0.6005926177191803    0.2403244085830663   -0.0000000000000004 H
   0.3306087790924322    0.0783553463113012    0.0903919861203627 H
   0.3306087790924293    0.0783553463112993   -0.0903919861203620 H
   0.6693912209075689   -0.0783553463113003    0.0903919861203621 H
   0.3994073822808190   -0.2403244085830666   -0.0000000000000006 H
   0.6693912209075706   -0.0783553463112995   -0.0903919861203618 H
