B4 H12
1.0
   5.5989432463220501    0.0000000000000003    0.0000000000000003
   0.0000000000000000    5.5989432463220501    0.0000000000000003
   0.0000000000000000    0.0000000000000000   11.6903504898550104
B H
4 12
direct
   0.3467471328657878    0.4693921907875268    0.1723643943213890 B
   0.6532528671342123    0.5306078092124724    0.1723643943213890 B
   0.4693921907875268    0.6532528671342122    0.8276356056786111 B
   0.5306078092124724    0.3467471328657876    0.8276356056786109 B
   0.3051205169920541    0.6778160667813886    0.1723643943213887 H
   0.3675604408026539    0.3651802527905991    0.2605200160152025 H
   0.3675604408026548    0.3651802527905956    0.0842087726275764 H
   0.6324395591973455    0.6348197472094024    0.2605200160152020 H
   0.6948794830079460    0.3221839332186107    0.1723643943213885 H
   0.6324395591973452    0.6348197472094042    0.0842087726275765 H
   0.6778160667813885    0.6948794830079458    0.8276356056786112 H
   0.3651802527905992    0.6324395591973460    0.7394799839847974 H
   0.3651802527905956    0.6324395591973452    0.9157912273724236 H
   0.6348197472094024    0.3675604408026544    0.7394799839847981 H
   0.3221839332186107    0.3051205169920539    0.8276356056786115 H
   0.6348197472094043    0.3675604408026546    0.9157912273724235 H
