B4 H12
1.0
   5.3346197757200713    0.0000000000000003    0.9608071621329718
   0.0000000000000000    6.3799704348006765    0.0000000000000004
   0.0000000000000000    0.0000000000000000   10.7675655873728111
B H
4 12
direct
   0.0593929263378474   -0.0999873401514639    0.0419006635096021 B
  -0.0593929263378467    0.0999873401514638   -0.0419006635096024 B
  -0.0593929263378474   -0.0999873401514639    0.4580993364903979 B
   0.0593929263378467    0.0999873401514638    0.5419006635096024 B
  -0.1478076859132485   -0.1428772592638914    0.0924878723363324 H
   0.1780967136838000    0.0255944543650115    0.0880417619791787 H
   0.1478897512429881   -0.1826792155555114   -0.0548276437867035 H
  -0.1478897512429862    0.1826792155555120    0.0548276437867031 H
   0.1478076859132491    0.1428772592638905   -0.0924878723363333 H
  -0.1780967136838031   -0.0255944543650111   -0.0880417619791771 H
   0.1478076859132485   -0.1428772592638915    0.4075121276636676 H
  -0.1780967136838000    0.0255944543650115    0.4119582380208213 H
  -0.1478897512429881   -0.1826792155555114    0.5548276437867034 H
   0.1478897512429862    0.1826792155555120    0.4451723562132967 H
  -0.1478076859132491    0.1428772592638906    0.5924878723363332 H
   0.1780967136838031   -0.0255944543650111    0.5880417619791771 H
