B4 H12
1.0
   4.4797315826075499    0.0000000000000002    0.8844763568014647
   0.0000000000000000    8.1659894780624285    0.0000000000000005
   0.0000000000000000    0.0000000000000000   10.0179498654079904
B H
4 12
direct
  -0.1596302040849658   -0.0059772511038503   -0.0360034992082571 B
   0.1596302040849658    0.0059772511038497    0.0360034992082571 B
   0.1596302040849658    0.4940227488961497    0.0360034992082571 B
  -0.1596302040849658    0.5059772511038497   -0.0360034992082571 B
  -0.0810365628306207    0.1125707242530525   -0.1024173643813302 H
  -0.3126931972769398    0.0078059268315395    0.0739432549423270 H
  -0.0851608521473369   -0.1383084043961406   -0.0795363881857683 H
   0.0851608521473359    0.1383084043961397    0.0795363881857691 H
   0.0810365628306216   -0.1125707242530536    0.1024173643813297 H
   0.3126931972769399   -0.0078059268315368   -0.0739432549423273 H
   0.0810365628306207    0.6125707242530525    0.1024173643813302 H
   0.3126931972769398    0.5078059268315395   -0.0739432549423270 H
   0.0851608521473369    0.3616915956038594    0.0795363881857683 H
  -0.0851608521473359    0.6383084043961398   -0.0795363881857691 H
  -0.0810365628306216    0.3874292757469464   -0.1024173643813297 H
  -0.3126931972769399    0.4921940731684632    0.0739432549423274 H
