B4 H12
1.0
   7.9064711522175495    0.0000000000000005    0.0000000000000005
   0.0000000000000000    7.9064711522175495    0.0000000000000005
   0.0000000000000000    0.0000000000000000    5.8623842543370781
B H
4 12
direct
   0.1074584063662073    0.4735371335137706    0.4727022716793812 B
  -0.1074584063662072    0.5264628664862300    0.4727022716793812 B
   0.5264628664862294    0.1074584063662073    0.4727022716793812 B
   0.4735371335137701   -0.1074584063662072    0.4727022716793813 B
   0.0714689119697480    0.3273937171993851    0.4727022716793807 H
   0.1254531535644365    0.5466088416709610    0.6484959540005827 H
   0.1254531535644370    0.5466088416709635    0.2969085893581815 H
  -0.1254531535644366    0.4533911583290378    0.6484959540005816 H
  -0.0714689119697479    0.6726062828006154    0.4727022716793803 H
  -0.1254531535644370    0.4533911583290366    0.2969085893581819 H
   0.6726062828006149    0.0714689119697480    0.4727022716793807 H
   0.4533911583290389    0.1254531535644365    0.6484959540005827 H
   0.4533911583290365    0.1254531535644370    0.2969085893581815 H
   0.5466088416709621   -0.1254531535644366    0.6484959540005816 H
   0.3273937171993846   -0.0714689119697478    0.4727022716793803 H
   0.5466088416709634   -0.1254531535644370    0.2969085893581819 H
