B4 H12
1.0
   8.5606927346287840    0.0000000000000006   -1.8151475987768719
   0.0000000000000000    9.8545840453950486    0.0000000000000006
   0.0000000000000000    0.0000000000000000    4.3440263950901956
B H
4 12
direct
  -0.0772240849638801    0.8360601377329416    0.0996882345422313 B
   0.0772240849638798    0.8360601206339043   -0.0996882345422321 B
   0.5930286466944593    0.3374632071981509    0.4554296435022700 B
   0.4069713533055409    0.3374632049689720    0.5445703564977308 B
   0.0138410995874401    0.8360601364745460    0.3447100680943360 H
  -0.1227566868191699    0.7314823996666826   -0.0228226731397155 H
  -0.1227566676599094    0.9406378770575954   -0.0228226913279233 H
   0.1227566676599085    0.7314823813092504    0.0228226913279210 H
  -0.0138410995874404    0.8360601218923008   -0.3447100680943368 H
   0.1227566868191714    0.9406378587001620    0.0228226731397195 H
   0.5354437431610970    0.3374631956015608    0.1820392891033766 H
   0.6218211046257249    0.2328854743009894    0.5921248427798739 H
   0.6218210922965549    0.4420409516919019    0.5921247986235560 H
   0.3781789077034456    0.2328854604752206    0.4078752013764463 H
   0.4645562568389032    0.3374632165655631    0.8179607108966244 H
   0.3781788953742741    0.4420409378661323    0.4078751572201217 H
