B4 H12
1.0
  10.0974885650639816    0.0000000000000006    0.0000000000000006
   0.0000000000000000   10.0974885650639816    0.0000000000000006
   0.0000000000000000    0.0000000000000000    3.5942884104174384
B H
4 12
direct
   0.0379963775637971    0.5778806834082797    0.0000000000000003 B
  -0.0379963775637967    0.4221193165917201    0.0000000000000003 B
   0.4221193165917203    0.0379963775637971    0.0000000000000004 B
   0.5778806834082798   -0.0379963775637967    0.0000000000000002 B
  -0.0679213400263675    0.6295557511160658    0.0000000000000011 H
   0.0909552363588778    0.5520431495543875   -0.2867243797867782 H
   0.0909552363588795    0.5520431495543865    0.2867243797867758 H
  -0.0909552363588786    0.4479568504456130   -0.2867243797867763 H
   0.0679213400263678    0.3704442488839341    0.0000000000000018 H
  -0.0909552363588795    0.4479568504456134    0.2867243797867752 H
   0.3704442488839343   -0.0679213400263675    0.0000000000000012 H
   0.4479568504456125    0.0909552363588778   -0.2867243797867782 H
   0.4479568504456135    0.0909552363588795    0.2867243797867758 H
   0.5520431495543870   -0.0909552363588786   -0.2867243797867764 H
   0.6295557511160659    0.0679213400263678    0.0000000000000018 H
   0.5520431495543866   -0.0909552363588795    0.2867243797867752 H
