B4 H12
1.0
  12.6869422866310089    0.0000000000000008    0.0000000000000008
   0.0000000000000000    6.7581155212358155    0.0000000000000004
   0.0000000000000000    0.0000000000000000    4.2742221158303400
B H
4 12
direct
  -0.0452144728509309    0.0000000111488058   -0.1545858416559617 B
   0.0452144728509311   -0.0000000111488055    0.1545858416559611 B
   0.5452144728509309   -0.0000000111488058   -0.1545858416559618 B
   0.4547855271490688    0.0000000111488055    0.1545858416559611 B
  -0.1160430793628532    0.0000000189549255    0.0279365743350437 H
  -0.0098001768998115   -0.1524937037619176   -0.2458470583217998 H
  -0.0098001622901290    0.1524937182534083   -0.2458470409811266 H
   0.0098001622901296   -0.1524937182534086    0.2458470409811249 H
   0.1160430793628534   -0.0000000189549239   -0.0279365743350443 H
   0.0098001768998103    0.1524937037619160    0.2458470583218027 H
   0.6160430793628532   -0.0000000189549255    0.0279365743350436 H
   0.5098001768998114    0.1524937037619176   -0.2458470583217998 H
   0.5098001622901290   -0.1524937182534083   -0.2458470409811266 H
   0.4901998377098704    0.1524937182534086    0.2458470409811249 H
   0.3839569206371465    0.0000000189549239   -0.0279365743350443 H
   0.4901998231001897   -0.1524937037619160    0.2458470583218028 H
