B4 H12
1.0
   6.5884734473753994    0.0000000000000004    0.0000000000000004
   0.0000000000000000    6.9809146779189115    0.0000000000000004
   0.0000000000000000    0.0000000000000000    7.9678753726664784
B H
4 12
direct
   0.1321999569994532    0.4880226321134233   -0.0000000000000002 B
  -0.1321999569994532    0.5119773678865773   -0.0000000000000001 B
   0.3678000430005469   -0.0119773678865767    0.0000000000000002 B
   0.6321999569994531    0.0119773678865773    0.0000000000000001 B
   0.1149404741381832    0.3183379482386504   -0.0000000000000005 H
   0.1408296984300881    0.5728649740508072    0.1293406418964684 H
   0.1408296984300882    0.5728649740508100   -0.1293406418964674 H
  -0.1408296984300880    0.4271350259491915    0.1293406418964677 H
  -0.1149404741381832    0.6816620517613502   -0.0000000000000008 H
  -0.1408296984300883    0.4271350259491901   -0.1293406418964670 H
   0.3850595258618167   -0.1816620517613496    0.0000000000000006 H
   0.3591703015699121    0.0728649740508072   -0.1293406418964684 H
   0.3591703015699119    0.0728649740508101    0.1293406418964674 H
   0.6408296984300881   -0.0728649740508085   -0.1293406418964676 H
   0.6149404741381833    0.1816620517613501    0.0000000000000008 H
   0.6408296984300883   -0.0728649740508099    0.1293406418964670 H
