B4 H12
1.0
   5.0964202251580000    0.0000000000000003    0.0000000000000003
   0.0000000000000000    9.8703843486612559    0.0000000000000006
   0.0000000000000000    0.0000000000000000    7.2851813610750558
B H
4 12
direct
  -0.1703091666798175    0.5112170412654229    0.9076689886911357 B
   0.1703091666798176    0.4887829587345777    0.9076689886911357 B
   0.3296908333201825   -0.0112170412654227    0.4076689886911356 B
   0.6703091666798175    0.0112170412654223    0.4076689886911356 B
  -0.1998543038798568    0.3916234107377328    0.9076689886911360 H
  -0.1555365980797983    0.5710138565292660    0.7662078411680124 H
  -0.1555365980797977    0.5710138565292679    1.0491301362142575 H
   0.1555365980797980    0.4289861434707332    0.7662078411680133 H
   0.1998543038798569    0.6083765892622678    0.9076689886911363 H
   0.1555365980797978    0.4289861434707322    1.0491301362142571 H
   0.3001456961201432    0.1083765892622673    0.4076689886911360 H
   0.3444634019202018   -0.0710138565292659    0.2662078411680124 H
   0.3444634019202023   -0.0710138565292680    0.5491301362142574 H
   0.6555365980797980    0.0710138565292668    0.2662078411680133 H
   0.6998543038798568   -0.1083765892622677    0.4076689886911363 H
   0.6555365980797977    0.0710138565292679    0.5491301362142571 H
