B4 H12
1.0
   7.7498575162770225    0.0000000000000005    0.0000000000000005
   0.0000000000000000    6.0805365176212156    0.0000000000000004
   0.0000000000000000    0.0000000000000000    7.7768557525365249
B H
4 12
direct
  -0.0727007597200572    0.1100995269525250    0.0010515312328472 B
   0.0727007597200568   -0.1100995269525254    0.0010515312328473 B
  -0.0727007597200572   -0.1100995269525250    0.5010515312328473 B
   0.0727007597200568    0.1100995269525254    0.5010515312328473 B
   0.0447815553275961    0.2361166689824610    0.0010515312328469 H
  -0.1314419172438821    0.0470909559375590    0.1335691126365671 H
  -0.1314419172438840    0.0470909559375567   -0.1314660501708712 H
   0.1314419172438829   -0.0470909559375579    0.1335691126365663 H
  -0.0447815553275965   -0.2361166689824614    0.0010515312328466 H
   0.1314419172438840   -0.0470909559375569   -0.1314660501708709 H
   0.0447815553275961   -0.2361166689824610    0.5010515312328468 H
  -0.1314419172438821   -0.0470909559375589    0.6335691126365671 H
  -0.1314419172438840   -0.0470909559375567    0.3685339498291288 H
   0.1314419172438829    0.0470909559375578    0.6335691126365663 H
  -0.0447815553275965    0.2361166689824614    0.5010515312328466 H
   0.1314419172438840    0.0470909559375569    0.3685339498291290 H
