B4 H12
1.0
   4.3656746085016787    0.0000000000000003    0.0000000000000003
   0.0000000000000000    6.4775969970349889    0.0000000000000004
   0.0000000000000000    0.0000000000000000   12.9590860844908118
B H
4 12
direct
   0.0272651709703877    0.1338252434333318   -0.0000000000000001 B
  -0.0272651709703886   -0.1338252434333317   -0.0000000000000001 B
  -0.0272651709703877    0.1338252434333318    0.5000000000000001 B
   0.0272651709703886   -0.1338252434333317    0.5000000000000000 B
   0.2973122374760053    0.1088341923029648   -0.0000000000000003 H
  -0.1077583622824170    0.1463207689985150    0.0795249069674065 H
  -0.1077583622824216    0.1463207689985153   -0.0795249069674059 H
   0.1077583622824191   -0.1463207689985150    0.0795249069674061 H
  -0.2973122374760063   -0.1088341923029647   -0.0000000000000005 H
   0.1077583622824214   -0.1463207689985154   -0.0795249069674057 H
  -0.2973122374760053    0.1088341923029648    0.5000000000000003 H
   0.1077583622824170    0.1463207689985150    0.4204750930325934 H
   0.1077583622824216    0.1463207689985153    0.5795249069674059 H
  -0.1077583622824191   -0.1463207689985150    0.4204750930325939 H
   0.2973122374760063   -0.1088341923029647    0.5000000000000004 H
  -0.1077583622824214   -0.1463207689985154    0.5795249069674057 H
