B4 H12
1.0
   8.9890013585981574    0.0000000000000006    0.0000000000000006
   0.0000000000000000    8.9890013585981574    0.0000000000000006
   0.0000000000000000    0.0000000000000000    4.5354122677804671
B H
4 12
direct
   0.0918459917212548    0.4677568744629971   -0.0000000000000003 B
  -0.0918459917212547    0.5322431255370035   -0.0000000000000002 B
   0.5322431255370029    0.0918459917212548   -0.0000000000000003 B
   0.4677568744629967   -0.0918459917212547   -0.0000000000000002 B
   0.0479953458948798    0.3428463396912103   -0.0000000000000009 H
   0.1137713146344417    0.5302121418488887    0.2272274391840642 H
   0.1137713146344424    0.5302121418488908   -0.2272274391840624 H
  -0.1137713146344420    0.4697878581511105    0.2272274391840629 H
  -0.0479953458948796    0.6571536603087903   -0.0000000000000014 H
  -0.1137713146344424    0.4697878581511094   -0.2272274391840619 H
   0.6571536603087897    0.0479953458948798   -0.0000000000000009 H
   0.4697878581511113    0.1137713146344417    0.2272274391840642 H
   0.4697878581511093    0.1137713146344424   -0.2272274391840624 H
   0.5302121418488895   -0.1137713146344420    0.2272274391840629 H
   0.3428463396912099   -0.0479953458948796   -0.0000000000000014 H
   0.5302121418488907   -0.1137713146344424   -0.2272274391840619 H
