La2 B4 H12
1.0
   5.8082661379101141    0.0000000000000004    0.0000000000000004
   0.0000000000000000    5.8082661379101141    0.0000000000000004
   0.0000000000000000    0.0000000000000000   19.6478550112303481
B H La
4 12 2
direct
  -0.0985226938018388   -0.1139645030855346    0.4395996596553810 B
   0.0985226938018383    0.1139645030855350    0.4395996596553809 B
  -0.1139645030855346    0.0985226938018389    0.5604003403446191 B
   0.1139645030855350   -0.0985226938018383    0.5604003403446192 B
   0.0564690130613013   -0.2479553516714367    0.4395996596553811 H
  -0.1760185472334065   -0.0469690787925856    0.3871476177066445 H
  -0.1760185472334090   -0.0469690787925832    0.4920517016041169 H
   0.1760185472334076    0.0469690787925844    0.3871476177066449 H
  -0.0564690130613018    0.2479553516714371    0.4395996596553812 H
   0.1760185472334090    0.0469690787925835    0.4920517016041168 H
  -0.2479553516714367   -0.0564690130613013    0.5604003403446189 H
  -0.0469690787925857    0.1760185472334065    0.6128523822933557 H
  -0.0469690787925832    0.1760185472334090    0.5079482983958832 H
   0.0469690787925845   -0.1760185472334076    0.6128523822933551 H
   0.2479553516714371    0.0564690130613018    0.5604003403446188 H
   0.0469690787925835   -0.1760185472334090    0.5079482983958833 H
   0.5000000000000000    0.4999999999999999    0.2865742876240467 La
   0.5000000000000000    0.4999999999999999    0.7134257123759534 La
